\ SCIP STATISTICS
\   Problem name     : t_pk1
\   Variables        : 86 (55 binary, 0 integer, 0 implicit integer, 31 continuous)
\   Constraints      : 45
Minimize
 Obj: +1 t_x1
Subject to
 c1: +10 t_x55 +14 t_x2 +36 t_x3 +11 t_x4 +27 t_x5 +49 t_x6 +26 t_x7 +37 t_x8 +45 t_x9 +21 t_x10 +6 t_x11
  +48 t_x12 +38 t_x13 +37 t_x14 +10 t_x15 +16 t_x16 +35 t_x17 +17 t_x18 +7 t_x19 +46 t_x20 +26 t_x21 +8 t_x22
  +40 t_x23 +19 t_x24 +33 t_x25 +5 t_x26 +42 t_x27 +22 t_x28 +14 t_x29 +51 t_x30 +49 t_x31 +7 t_x32 +10 t_x33
  +30 t_x34 +14 t_x35 +32 t_x36 +24 t_x37 +36 t_x38 +14 t_x39 +13 t_x40 +52 t_x41 +16 t_x42 +5 t_x43 +35 t_x44
  +48 t_x45 +11 t_x46 +47 t_x47 +27 t_x48 +24 t_x49 +49 t_x50 +17 t_x51 +46 t_x52 +53 t_x53 +53 t_x54
  +30 t_x56 +1 t_x57 -1 t_x58 = +731
 c2: +17 t_x55 +53 t_x2 +48 t_x3 +48 t_x4 +12 t_x5 +43 t_x6 +42 t_x7 +14 t_x8 +48 t_x9 +16 t_x10 +23 t_x11
  +25 t_x12 +36 t_x13 +54 t_x14 +34 t_x15 +45 t_x16 +51 t_x17 +45 t_x18 +46 t_x19 +30 t_x20 +38 t_x21
  +52 t_x22 +21 t_x23 +9 t_x24 +21 t_x25 +15 t_x26 +22 t_x27 +12 t_x28 +12 t_x29 +19 t_x30 +17 t_x31 +38 t_x32
  +17 t_x33 +9 t_x34 +30 t_x35 +24 t_x36 +48 t_x37 +16 t_x38 +34 t_x39 +41 t_x40 +28 t_x41 +52 t_x42 +10 t_x43
  +8 t_x44 +51 t_x45 +40 t_x46 +48 t_x47 +46 t_x48 +30 t_x49 +38 t_x50 +21 t_x51 +12 t_x52 +35 t_x53 +38 t_x54
  +52 t_x56 +1 t_x59 -1 t_x60 = +731
 c3: +30 t_x55 +48 t_x2 +34 t_x3 +8 t_x4 +5 t_x5 +49 t_x6 +21 t_x7 +38 t_x8 +11 t_x9 +26 t_x10 +12 t_x11
  +30 t_x12 +18 t_x13 +23 t_x14 +8 t_x15 +55 t_x16 +46 t_x17 +5 t_x18 +10 t_x19 +50 t_x20 +52 t_x21 +45 t_x22
  +42 t_x23 +43 t_x24 +19 t_x25 +25 t_x26 +8 t_x27 +27 t_x28 +5 t_x29 +41 t_x30 +39 t_x31 +52 t_x32 +33 t_x33
  +17 t_x34 +5 t_x35 +34 t_x36 +11 t_x37 +21 t_x38 +16 t_x39 +17 t_x40 +42 t_x41 +23 t_x42 +43 t_x43 +5 t_x44
  +42 t_x45 +47 t_x46 +55 t_x47 +32 t_x48 +47 t_x49 +9 t_x50 +26 t_x51 +43 t_x52 +50 t_x53 +13 t_x54 +14 t_x56
  +1 t_x61 -1 t_x62 = +731
 c4: +25 t_x55 +33 t_x2 +34 t_x3 +36 t_x4 +34 t_x5 +19 t_x6 +19 t_x7 +30 t_x8 +48 t_x9 +32 t_x10 +30 t_x11
  +26 t_x12 +39 t_x13 +47 t_x14 +37 t_x15 +52 t_x16 +33 t_x17 +5 t_x18 +39 t_x19 +34 t_x20 +42 t_x21 +30 t_x22
  +33 t_x23 +19 t_x24 +21 t_x25 +38 t_x26 +40 t_x27 +9 t_x28 +33 t_x29 +48 t_x30 +35 t_x31 +42 t_x32 +26 t_x33
  +13 t_x34 +23 t_x35 +55 t_x36 +27 t_x37 +37 t_x38 +30 t_x39 +20 t_x40 +14 t_x41 +5 t_x42 +42 t_x43 +49 t_x44
  +47 t_x45 +24 t_x46 +45 t_x47 +25 t_x48 +24 t_x49 +28 t_x50 +54 t_x51 +11 t_x52 +53 t_x53 +32 t_x54
  +19 t_x56 +1 t_x63 -1 t_x64 = +731
 c5: +22 t_x55 +15 t_x2 +9 t_x3 +24 t_x4 +43 t_x5 +53 t_x6 +54 t_x7 +29 t_x8 +24 t_x9 +11 t_x10 +47 t_x11
  +24 t_x12 +34 t_x13 +29 t_x14 +49 t_x15 +50 t_x16 +39 t_x17 +50 t_x18 +36 t_x19 +32 t_x20 +42 t_x21
  +55 t_x22 +21 t_x23 +11 t_x24 +24 t_x25 +45 t_x26 +10 t_x27 +30 t_x28 +42 t_x29 +38 t_x30 +51 t_x31
  +6 t_x32 +48 t_x33 +5 t_x34 +25 t_x35 +36 t_x36 +53 t_x37 +24 t_x38 +10 t_x39 +22 t_x40 +31 t_x41 +53 t_x42
  +41 t_x43 +10 t_x44 +26 t_x45 +35 t_x46 +55 t_x47 +10 t_x48 +29 t_x49 +36 t_x50 +37 t_x51 +15 t_x52
  +36 t_x53 +54 t_x54 +55 t_x56 +1 t_x65 -1 t_x66 = +731
 c6: +40 t_x55 +43 t_x2 +28 t_x3 +30 t_x4 +30 t_x5 +10 t_x6 +26 t_x7 +32 t_x8 +54 t_x9 +26 t_x10 +52 t_x11
  +34 t_x12 +24 t_x13 +21 t_x14 +39 t_x15 +41 t_x16 +47 t_x17 +36 t_x18 +27 t_x19 +52 t_x20 +7 t_x21 +6 t_x22
  +52 t_x23 +13 t_x24 +30 t_x25 +32 t_x26 +46 t_x27 +41 t_x28 +12 t_x29 +44 t_x30 +7 t_x31 +12 t_x32 +32 t_x33
  +30 t_x34 +38 t_x35 +6 t_x36 +36 t_x37 +8 t_x38 +34 t_x39 +34 t_x40 +30 t_x41 +31 t_x42 +13 t_x43 +49 t_x44
  +47 t_x45 +48 t_x46 +35 t_x47 +39 t_x48 +29 t_x49 +6 t_x50 +35 t_x51 +32 t_x52 +7 t_x53 +32 t_x54 +33 t_x56
  +1 t_x67 -1 t_x68 = +731
 c7: +41 t_x55 +8 t_x2 +30 t_x3 +18 t_x4 +16 t_x5 +18 t_x6 +21 t_x7 +24 t_x8 +46 t_x9 +47 t_x10 +6 t_x11
  +48 t_x12 +27 t_x13 +10 t_x14 +26 t_x15 +6 t_x16 +36 t_x17 +52 t_x18 +14 t_x19 +29 t_x20 +43 t_x21 +7 t_x22
  +8 t_x23 +26 t_x24 +31 t_x25 +10 t_x26 +6 t_x27 +7 t_x28 +12 t_x29 +33 t_x30 +42 t_x31 +41 t_x32 +37 t_x33
  +17 t_x34 +55 t_x35 +48 t_x36 +31 t_x37 +20 t_x38 +17 t_x39 +21 t_x40 +11 t_x41 +19 t_x42 +13 t_x43
  +34 t_x44 +24 t_x45 +35 t_x46 +35 t_x47 +55 t_x48 +31 t_x49 +44 t_x50 +29 t_x51 +19 t_x52 +46 t_x53
  +33 t_x54 +22 t_x56 +1 t_x69 -1 t_x70 = +731
 c8: +55 t_x55 +38 t_x2 +42 t_x3 +24 t_x4 +46 t_x5 +20 t_x6 +11 t_x7 +32 t_x8 +52 t_x9 +24 t_x10 +31 t_x11
  +45 t_x12 +50 t_x13 +47 t_x14 +6 t_x15 +15 t_x16 +53 t_x17 +20 t_x18 +24 t_x19 +31 t_x20 +40 t_x21 +54 t_x22
  +10 t_x23 +40 t_x24 +30 t_x25 +50 t_x26 +14 t_x27 +44 t_x28 +41 t_x29 +42 t_x30 +29 t_x31 +8 t_x32 +24 t_x33
  +16 t_x34 +27 t_x35 +15 t_x36 +31 t_x37 +34 t_x38 +42 t_x39 +28 t_x40 +53 t_x41 +17 t_x42 +18 t_x43
  +48 t_x44 +8 t_x45 +19 t_x46 +7 t_x47 +6 t_x48 +35 t_x49 +27 t_x50 +33 t_x51 +20 t_x52 +25 t_x53 +39 t_x54
  +51 t_x56 +1 t_x71 -1 t_x72 = +731
 c9: +34 t_x55 +34 t_x2 +13 t_x3 +39 t_x4 +19 t_x5 +51 t_x6 +13 t_x7 +22 t_x8 +20 t_x9 +24 t_x10 +45 t_x11
  +30 t_x12 +51 t_x13 +24 t_x14 +17 t_x15 +23 t_x16 +22 t_x17 +29 t_x18 +36 t_x19 +14 t_x20 +33 t_x21
  +51 t_x22 +17 t_x23 +35 t_x24 +31 t_x25 +39 t_x26 +12 t_x27 +47 t_x28 +9 t_x29 +46 t_x30 +46 t_x31 +55 t_x32
  +25 t_x33 +55 t_x34 +38 t_x35 +39 t_x36 +51 t_x37 +46 t_x38 +6 t_x39 +15 t_x40 +15 t_x41 +47 t_x42 +40 t_x43
  +10 t_x44 +15 t_x45 +52 t_x46 +29 t_x47 +32 t_x48 +26 t_x49 +10 t_x50 +42 t_x51 +55 t_x52 +6 t_x53 +54 t_x54
  +32 t_x56 +1 t_x73 -1 t_x74 = +731
 c10: +49 t_x55 +37 t_x2 +42 t_x3 +23 t_x4 +41 t_x5 +33 t_x6 +14 t_x7 +40 t_x8 +53 t_x9 +14 t_x10 +23 t_x11
  +37 t_x12 +9 t_x13 +14 t_x14 +38 t_x15 +19 t_x16 +24 t_x17 +29 t_x18 +55 t_x19 +29 t_x20 +40 t_x21 +52 t_x22
  +54 t_x23 +16 t_x24 +23 t_x25 +8 t_x26 +53 t_x27 +23 t_x28 +9 t_x29 +52 t_x30 +52 t_x31 +37 t_x32 +33 t_x33
  +39 t_x34 +55 t_x35 +18 t_x36 +17 t_x37 +14 t_x38 +54 t_x39 +14 t_x40 +24 t_x41 +21 t_x42 +46 t_x43
  +28 t_x44 +30 t_x45 +29 t_x46 +43 t_x47 +50 t_x48 +53 t_x49 +43 t_x50 +24 t_x51 +38 t_x52 +39 t_x53
  +22 t_x54 +7 t_x56 +1 t_x75 -1 t_x76 = +731
 c11: +50 t_x55 +25 t_x2 +47 t_x3 +25 t_x4 +29 t_x5 +44 t_x6 +22 t_x7 +10 t_x8 +21 t_x9 +5 t_x10 +10 t_x11
  +35 t_x12 +17 t_x13 +20 t_x14 +33 t_x15 +27 t_x16 +39 t_x17 +50 t_x18 +17 t_x19 +11 t_x20 +25 t_x21
  +42 t_x22 +50 t_x23 +19 t_x24 +40 t_x25 +37 t_x26 +38 t_x27 +22 t_x28 +20 t_x29 +5 t_x30 +16 t_x31 +22 t_x32
  +25 t_x33 +8 t_x34 +43 t_x35 +50 t_x36 +47 t_x37 +9 t_x38 +5 t_x39 +12 t_x40 +10 t_x41 +10 t_x42 +42 t_x43
  +22 t_x44 +25 t_x45 +20 t_x46 +45 t_x47 +9 t_x48 +15 t_x49 +7 t_x50 +15 t_x51 +35 t_x52 +44 t_x53 +9 t_x54
  +28 t_x56 +1 t_x77 -1 t_x78 = +731
 c12: +24 t_x55 +42 t_x2 +33 t_x3 +45 t_x4 +6 t_x5 +33 t_x6 +6 t_x7 +24 t_x8 +54 t_x9 +9 t_x10 +12 t_x11
  +48 t_x12 +51 t_x13 +16 t_x14 +48 t_x15 +8 t_x16 +21 t_x17 +54 t_x18 +46 t_x19 +39 t_x20 +23 t_x21 +11 t_x22
  +28 t_x23 +27 t_x24 +21 t_x25 +30 t_x26 +38 t_x27 +52 t_x28 +18 t_x29 +43 t_x30 +46 t_x31 +42 t_x32
  +29 t_x33 +23 t_x34 +32 t_x35 +31 t_x36 +52 t_x37 +33 t_x38 +51 t_x39 +50 t_x40 +38 t_x41 +7 t_x42 +42 t_x43
  +34 t_x44 +18 t_x45 +35 t_x46 +37 t_x47 +35 t_x48 +33 t_x49 +28 t_x50 +18 t_x51 +52 t_x52 +34 t_x53
  +42 t_x54 +51 t_x56 +1 t_x79 -1 t_x80 = +731
 c13: +6 t_x55 +16 t_x2 +6 t_x3 +47 t_x4 +30 t_x5 +45 t_x6 +37 t_x7 +16 t_x8 +19 t_x9 +5 t_x10 +44 t_x11
  +45 t_x12 +53 t_x13 +22 t_x14 +40 t_x15 +47 t_x16 +55 t_x17 +43 t_x18 +34 t_x19 +33 t_x20 +6 t_x21 +13 t_x22
  +15 t_x23 +36 t_x24 +41 t_x25 +39 t_x26 +50 t_x27 +38 t_x28 +18 t_x29 +36 t_x30 +6 t_x31 +13 t_x32 +47 t_x33
  +8 t_x34 +5 t_x35 +22 t_x36 +48 t_x37 +37 t_x38 +34 t_x39 +11 t_x40 +38 t_x41 +22 t_x42 +52 t_x43 +35 t_x44
  +39 t_x45 +37 t_x46 +27 t_x47 +38 t_x48 +24 t_x49 +5 t_x50 +16 t_x51 +25 t_x52 +14 t_x53 +27 t_x54 +51 t_x56
  +1 t_x81 -1 t_x82 = +731
 c14: +37 t_x55 +10 t_x2 +51 t_x3 +33 t_x4 +23 t_x5 +31 t_x6 +34 t_x7 +32 t_x8 +23 t_x9 +38 t_x10 +32 t_x11
  +40 t_x12 +30 t_x13 +14 t_x14 +19 t_x15 +37 t_x16 +48 t_x17 +36 t_x18 +33 t_x19 +27 t_x20 +20 t_x21
  +14 t_x22 +50 t_x23 +54 t_x24 +34 t_x25 +50 t_x26 +14 t_x27 +54 t_x28 +9 t_x29 +37 t_x30 +55 t_x31 +55 t_x32
  +42 t_x33 +51 t_x34 +32 t_x35 +10 t_x36 +26 t_x37 +11 t_x38 +38 t_x39 +45 t_x40 +44 t_x41 +14 t_x42
  +30 t_x43 +19 t_x44 +24 t_x45 +44 t_x46 +52 t_x47 +16 t_x48 +24 t_x49 +29 t_x50 +39 t_x51 +39 t_x52
  +39 t_x53 +33 t_x54 +17 t_x56 +1 t_x83 -1 t_x84 = +731
 c15: +35 t_x55 +28 t_x2 +47 t_x3 +16 t_x4 +32 t_x5 +28 t_x6 +16 t_x7 +32 t_x8 +15 t_x9 +11 t_x10 +8 t_x11
  +21 t_x12 +33 t_x13 +15 t_x14 +54 t_x15 +22 t_x16 +55 t_x17 +13 t_x18 +47 t_x19 +19 t_x20 +33 t_x21
  +35 t_x22 +15 t_x23 +44 t_x24 +55 t_x25 +39 t_x26 +28 t_x27 +39 t_x28 +23 t_x29 +6 t_x30 +20 t_x31 +36 t_x32
  +29 t_x33 +12 t_x34 +48 t_x35 +6 t_x36 +35 t_x37 +8 t_x38 +33 t_x39 +46 t_x40 +15 t_x41 +37 t_x42 +11 t_x43
  +44 t_x44 +48 t_x45 +9 t_x46 +11 t_x47 +47 t_x48 +18 t_x49 +54 t_x50 +10 t_x51 +46 t_x52 +34 t_x53 +20 t_x54
  +33 t_x56 +1 t_x85 -1 t_x86 = +731
 c16: +1 t_x1 -1 t_x57 >= +0
 c17: +1 t_x1 -1 t_x58 >= +0
 c18: +1 t_x1 -1 t_x59 >= +0
 c19: +1 t_x1 -1 t_x60 >= +0
 c20: +1 t_x1 -1 t_x61 >= +0
 c21: +1 t_x1 -1 t_x62 >= +0
 c22: +1 t_x1 -1 t_x63 >= +0
 c23: +1 t_x1 -1 t_x64 >= +0
 c24: +1 t_x1 -1 t_x65 >= +0
 c25: +1 t_x1 -1 t_x66 >= +0
 c26: +1 t_x1 -1 t_x67 >= +0
 c27: +1 t_x1 -1 t_x68 >= +0
 c28: +1 t_x1 -1 t_x69 >= +0
 c29: +1 t_x1 -1 t_x70 >= +0
 c30: +1 t_x1 -1 t_x71 >= +0
 c31: +1 t_x1 -1 t_x72 >= +0
 c32: +1 t_x1 -1 t_x73 >= +0
 c33: +1 t_x1 -1 t_x74 >= +0
 c34: +1 t_x1 -1 t_x75 >= +0
 c35: +1 t_x1 -1 t_x76 >= +0
 c36: +1 t_x1 -1 t_x77 >= +0
 c37: +1 t_x1 -1 t_x78 >= +0
 c38: +1 t_x1 -1 t_x79 >= +0
 c39: +1 t_x1 -1 t_x80 >= +0
 c40: +1 t_x1 -1 t_x81 >= +0
 c41: +1 t_x1 -1 t_x82 >= +0
 c42: +1 t_x1 -1 t_x83 >= +0
 c43: +1 t_x1 -1 t_x84 >= +0
 c44: +1 t_x1 -1 t_x85 >= +0
 c45: +1 t_x1 -1 t_x86 >= +0
 newcut_1: +1.0 t_x55 -0.4518357220142071 t_x4 +1.0 t_x5 +1.0 t_x12 +1.0 t_x17 -0.2593642368216592 t_x19 +0.91077153838137 t_x20 +0.418133422244379 t_x24 +1.0 t_x25 -1.0 t_x26 +1.0 t_x27 -1.0 t_x28 -1.0 t_x31 -1.0 t_x32 -0.9402952010872886 t_x34 +1.0 t_x35 +0.12574622602598465 t_x36 -1.0 t_x40 +1.0 t_x44 +1.0 t_x48 -1.0 t_x51 -1.0 t_x54 -0.016042595613654138 t_x86 -0.011102399514206432 t_x58 -0.01603412557265577 t_x59 -0.0017114996528342665 t_x61 -0.009395314061863261 t_x63 -0.03056149031942386 t_x65 -0.01562698510833914 t_x68 -0.029726492040055962 t_x70 -0.015052703903496728 t_x72 -0.014207082068242973 t_x73 -0.03427060379602241 t_x76 -0.010365081670921227 t_x78 -0.045034436398688774 t_x79 -0.056899950847770636 t_x82 -0.044902443389846704 t_x83 <= 9.454651186651734
 newcut_2: -1.0 t_x55 -0.9093192659276756 t_x12 -1.0 t_x17 +1.0 t_x19 -0.7807451229340664 t_x25 -0.7908076608562364 t_x26 -0.20174889552006953 t_x27 -0.7103990741909376 t_x29 +1.0 t_x31 +0.9116239579781691 t_x32 -0.7757512877665089 t_x33 +1.0 t_x34 +0.44762286627383746 t_x35 -1.0 t_x36 +0.24276540413533568 t_x37 -1.0 t_x38 +1.0 t_x40 +1.0 t_x42 -1.0 t_x43 -1.0 t_x44 -0.2648738846961358 t_x45 +1.0 t_x46 +1.0 t_x47 -0.3343507720139809 t_x49 +1.0 t_x50 +1.0 t_x54 -0.013112901638019857 t_x86 -0.0007405959258329453 t_x58 -0.053103784158662605 t_x60 -0.04245429524172538 t_x61 -0.010312273698657545 t_x64 -0.058168323925626854 t_x66 -0.011908636520329542 t_x67 -0.044625326810633255 t_x69 -0.05546453593788652 t_x71 -0.017580819225103978 t_x74 -0.016940862905197702 t_x76 -0.09000329902193331 t_x77 -0.050489405280333244 t_x80 -0.07246494025246267 t_x81 -0.06740791985941942 t_x84 <= -3.2014250139726386
Bounds
 0 <= t_x55 <= 1
 0 <= t_x2 <= 1
 0 <= t_x3 <= 1
 0 <= t_x4 <= 1
 0 <= t_x5 <= 1
 0 <= t_x6 <= 1
 0 <= t_x7 <= 1
 0 <= t_x8 <= 1
 0 <= t_x9 <= 1
 0 <= t_x10 <= 1
 0 <= t_x11 <= 1
 0 <= t_x12 <= 1
 0 <= t_x13 <= 1
 0 <= t_x14 <= 1
 0 <= t_x15 <= 1
 0 <= t_x16 <= 1
 0 <= t_x17 <= 1
 0 <= t_x18 <= 1
 0 <= t_x19 <= 1
 0 <= t_x20 <= 1
 0 <= t_x21 <= 1
 0 <= t_x22 <= 1
 0 <= t_x23 <= 1
 0 <= t_x24 <= 1
 0 <= t_x25 <= 1
 0 <= t_x26 <= 1
 0 <= t_x27 <= 1
 0 <= t_x28 <= 1
 0 <= t_x29 <= 1
 0 <= t_x30 <= 1
 0 <= t_x31 <= 1
 0 <= t_x32 <= 1
 0 <= t_x33 <= 1
 0 <= t_x34 <= 1
 0 <= t_x35 <= 1
 0 <= t_x36 <= 1
 0 <= t_x37 <= 1
 0 <= t_x38 <= 1
 0 <= t_x39 <= 1
 0 <= t_x40 <= 1
 0 <= t_x41 <= 1
 0 <= t_x42 <= 1
 0 <= t_x43 <= 1
 0 <= t_x44 <= 1
 0 <= t_x45 <= 1
 0 <= t_x46 <= 1
 0 <= t_x47 <= 1
 0 <= t_x48 <= 1
 0 <= t_x49 <= 1
 0 <= t_x50 <= 1
 0 <= t_x51 <= 1
 0 <= t_x52 <= 1
 0 <= t_x53 <= 1
 0 <= t_x54 <= 1
 0 <= t_x56 <= 1
Binaries
 t_x55 t_x2 t_x3 t_x4 t_x5 t_x6 t_x7 t_x8 t_x9 t_x10 t_x11 t_x12 t_x13 t_x14 t_x15 t_x16 t_x17 t_x18 t_x19
 t_x20 t_x21 t_x22 t_x23 t_x24 t_x25 t_x26 t_x27 t_x28 t_x29 t_x30 t_x31 t_x32 t_x33 t_x34 t_x35 t_x36
 t_x37 t_x38 t_x39 t_x40 t_x41 t_x42 t_x43 t_x44 t_x45 t_x46 t_x47 t_x48 t_x49 t_x50 t_x51 t_x52 t_x53
 t_x54 t_x56
End
